 C  H                                   
   1.0000000000000000     
    14.3133200000000009    0.0000000000000000    0.0000000000000000
     0.0000000000000000   14.9805799999999998    0.0000000000000000
     0.0000000000000000    0.0000000000000000   10.0000000000000000
   C    H 
     6     6
Direct
  0.5000000000000000  0.5933244878604782  0.5000000000000000
  0.4154116501391059  0.5466643642949336  0.5000000000000000
  0.4154116501391059  0.4533356357050664  0.5000000000000000
  0.5000000000000000  0.4066755121395218  0.5000000000000000
  0.5845883498608941  0.4533356357050664  0.5000000000000000
  0.5845883498608941  0.5466643642949336  0.5000000000000000
  0.5000000000000000  0.6661748879618798  0.5000000000000000
  0.3493793251819213  0.5830873759075672  0.5000000000000000
  0.3493793251819213  0.4169126240924328  0.5000000000000000
  0.5000000000000000  0.3338251120381202  0.5000000000000000
  0.6506206748180787  0.4169126240924328  0.5000000000000000
  0.6506206748180787  0.5830873759075672  0.5000000000000000

  0.00000000E+00  0.00000000E+00  0.00000000E+00
  0.00000000E+00  0.00000000E+00  0.00000000E+00
  0.00000000E+00  0.00000000E+00  0.00000000E+00
  0.00000000E+00  0.00000000E+00  0.00000000E+00
  0.00000000E+00  0.00000000E+00  0.00000000E+00
  0.00000000E+00  0.00000000E+00  0.00000000E+00
  0.00000000E+00  0.00000000E+00  0.00000000E+00
  0.00000000E+00  0.00000000E+00  0.00000000E+00
  0.00000000E+00  0.00000000E+00  0.00000000E+00
  0.00000000E+00  0.00000000E+00  0.00000000E+00
  0.00000000E+00  0.00000000E+00  0.00000000E+00
  0.00000000E+00  0.00000000E+00  0.00000000E+00
