 C  H 
 1.0000000000000000
    14.3133200000000009    0.0000000000000000    0.0000000000000000
     0.0000000000000000   14.9805799999999998    0.0000000000000000
     0.0000000000000000    0.0000000000000000   10.0000000000000000
 C   H  
   6   6
Cartesian
  7.1566600000000005  8.8930100000000003  5.0000000000000000
  5.9418700000000007  8.1916499999999992  5.0000000000000000
  5.9418700000000007  6.7889299999999997  5.0000000000000000
  7.1566600000000005  6.0875699999999995  5.0000000000000000
  8.3714500000000012  6.7889299999999997  5.0000000000000000
  8.3714500000000012  8.1916499999999992  5.0000000000000000
  7.1566600000000005  9.9805799999999998  5.0000000000000000
  5.0000000000000000  8.7354400000000005  5.0000000000000000
  5.0000000000000000  6.2451400000000001  5.0000000000000000
  7.1566600000000005  5.0000000000000000  5.0000000000000000
  9.3133200000000009  6.2451400000000001  5.0000000000000000
  9.3133200000000009  8.7354400000000005  5.0000000000000000
