 C  H                                   
   1.0000000000000000     
    14.3133200000000009    0.0000000000000000    0.0000000000000000
     0.0000000000000000   14.9805799999999998    0.0000000000000000
     0.0000000000000000    0.0000000000000000   10.0000000000000000
   C    H 
     6     6
Direct
  0.5000000000000000  0.5933244878604808  0.5000000000000000
  0.4154116501391032  0.5466643642949370  0.5000000000000000
  0.4154116501391032  0.4533356357050631  0.5000000000000000
  0.5000000000000000  0.4066755121395193  0.5000000000000000
  0.5845883498608969  0.4533356357050631  0.5000000000000000
  0.5845883498608969  0.5466643642949370  0.5000000000000000
  0.5000000000000000  0.6661748879618772  0.5000000000000000
  0.3493793251819203  0.5830873759075694  0.5000000000000000
  0.3493793251819203  0.4169126240924306  0.5000000000000000
  0.5000000000000000  0.3338251120381229  0.5000000000000000
  0.6506206748180797  0.4169126240924306  0.5000000000000000
  0.6506206748180797  0.5830873759075694  0.5000000000000000
