Al                                      
   1.0000000000000000     
     5.7275649276110352    0.0000000000000000    0.0000000000000000
     2.8637824638055176    4.9602167291359347    0.0000000000000000
     0.0000000000000000    0.0000000000000000   34.0296115413079079
   Al
    28
Direct
  0.0000000000000000  0.0000000000000000  0.2948892147472932
  0.5000000000000000  0.0000000000000000  0.2948892147472932
  0.0000000000000000  0.5000000000000000  0.2948892147472932
  0.5000000000000000  0.5000000000000000  0.2948892147472932
  0.1666666666666643  0.1666666666666643  0.3640369018627183
  0.6666666666666643  0.1666666666666643  0.3640369018627183
  0.1666666666666643  0.6666666666666643  0.3640369018627183
  0.6666666666666643  0.6666666666666643  0.3640369018627183
  0.8333333333333357  0.3333333333333357  0.4317507348766014
  0.3333333333333357  0.3333333333333357  0.4317507348766014
  0.8333333333333357  0.8333333333333357  0.4317507348766014
  0.3333333333333357  0.8333333333333357  0.4317507348766014
  0.0000000000000000  0.0000000000000000  0.5000000000000000
  0.5000000000000000  0.0000000000000000  0.5000000000000000
  0.0000000000000000  0.5000000000000000  0.5000000000000000
  0.5000000000000000  0.5000000000000000  0.5000000000000000
  0.1666666666666643  0.1666666666666643  0.5682492651233986
  0.6666666666666643  0.1666666666666643  0.5682492651233986
  0.1666666666666643  0.6666666666666643  0.5682492651233986
  0.6666666666666643  0.6666666666666643  0.5682492651233986
  0.8333333333333357  0.3333333333333357  0.6359630981372817
  0.3333333333333357  0.3333333333333357  0.6359630981372817
  0.8333333333333357  0.8333333333333357  0.6359630981372817
  0.3333333333333357  0.8333333333333357  0.6359630981372817
  0.0000000000000000  0.0000000000000000  0.7051107852527068
  0.5000000000000000  0.0000000000000000  0.7051107852527068
  0.0000000000000000  0.5000000000000000  0.7051107852527068
  0.5000000000000000  0.5000000000000000  0.7051107852527068

  0.00000000E+00  0.00000000E+00  0.00000000E+00
  0.00000000E+00  0.00000000E+00  0.00000000E+00
  0.00000000E+00  0.00000000E+00  0.00000000E+00
  0.00000000E+00  0.00000000E+00  0.00000000E+00
  0.00000000E+00  0.00000000E+00  0.00000000E+00
  0.00000000E+00  0.00000000E+00  0.00000000E+00
  0.00000000E+00  0.00000000E+00  0.00000000E+00
  0.00000000E+00  0.00000000E+00  0.00000000E+00
  0.00000000E+00  0.00000000E+00  0.00000000E+00
  0.00000000E+00  0.00000000E+00  0.00000000E+00
  0.00000000E+00  0.00000000E+00  0.00000000E+00
  0.00000000E+00  0.00000000E+00  0.00000000E+00
  0.00000000E+00  0.00000000E+00  0.00000000E+00
  0.00000000E+00  0.00000000E+00  0.00000000E+00
  0.00000000E+00  0.00000000E+00  0.00000000E+00
  0.00000000E+00  0.00000000E+00  0.00000000E+00
  0.00000000E+00  0.00000000E+00  0.00000000E+00
  0.00000000E+00  0.00000000E+00  0.00000000E+00
  0.00000000E+00  0.00000000E+00  0.00000000E+00
  0.00000000E+00  0.00000000E+00  0.00000000E+00
  0.00000000E+00  0.00000000E+00  0.00000000E+00
  0.00000000E+00  0.00000000E+00  0.00000000E+00
  0.00000000E+00  0.00000000E+00  0.00000000E+00
  0.00000000E+00  0.00000000E+00  0.00000000E+00
  0.00000000E+00  0.00000000E+00  0.00000000E+00
  0.00000000E+00  0.00000000E+00  0.00000000E+00
  0.00000000E+00  0.00000000E+00  0.00000000E+00
  0.00000000E+00  0.00000000E+00  0.00000000E+00
