Al                                      
   1.0000000000000000     
     5.7275649276110352    0.0000000000000000    0.0000000000000000
     2.8637824638055176    4.9602167291359347    0.0000000000000000
     0.0000000000000000    0.0000000000000000   34.0296115413079079
   Al
    28
Direct
  0.0000000000000000 -0.0000000000000000  0.2948892147472962
  0.5000000000000000 -0.0000000000000000  0.2948892147472962
  0.0000000000000000  0.5000000000000000  0.2948892147472962
  0.5000000000000000  0.5000000000000000  0.2948892147472962
  0.1666666666666643  0.1666666666666643  0.3640369018627199
  0.6666666666666643  0.1666666666666643  0.3640369018627199
  0.1666666666666643  0.6666666666666643  0.3640369018627199
  0.6666666666666643  0.6666666666666643  0.3640369018627199
  0.8333333333333357  0.3333333333333357  0.4317507348766002
  0.3333333333333357  0.3333333333333357  0.4317507348766002
  0.8333333333333357  0.8333333333333357  0.4317507348766002
  0.3333333333333357  0.8333333333333357  0.4317507348766002
  0.0000000000000000 -0.0000000000000000  0.5000000000000000
  0.5000000000000000 -0.0000000000000000  0.5000000000000000
  0.0000000000000000  0.5000000000000000  0.5000000000000000
  0.5000000000000000  0.5000000000000000  0.5000000000000000
  0.1666666666666643  0.1666666666666643  0.5682492651233999
  0.6666666666666643  0.1666666666666643  0.5682492651233999
  0.1666666666666643  0.6666666666666643  0.5682492651233999
  0.6666666666666643  0.6666666666666643  0.5682492651233999
  0.8333333333333357  0.3333333333333357  0.6359630981372800
  0.3333333333333357  0.3333333333333357  0.6359630981372800
  0.8333333333333357  0.8333333333333357  0.6359630981372800
  0.3333333333333357  0.8333333333333357  0.6359630981372800
  0.0000000000000000 -0.0000000000000000  0.7051107852527040
  0.5000000000000000 -0.0000000000000000  0.7051107852527040
  0.0000000000000000  0.5000000000000000  0.7051107852527040
  0.5000000000000000  0.5000000000000000  0.7051107852527040
