CH4                                     
   1.0000000000000000     
    10.0000000000000000    0.0000000000000000    0.0000000000000000
     0.0000000000000000   10.0000000000000000    0.0000000000000000
     0.0000000000000000    0.0000000000000000   10.0000000000000000
   C    H 
     1     4
Direct
  0.5000000000000000  0.5000000000000000  0.5000000000000000
  0.4367182129167467  0.4367182129167467  0.4367182129167467
  0.5632817870832533  0.5632817870832533  0.4367182129167467
  0.4367182129167467  0.5632817870832533  0.5632817870832533
  0.5632817870832533  0.4367182129167467  0.5632817870832533

  0.00000000E+00  0.00000000E+00  0.00000000E+00
  0.00000000E+00  0.00000000E+00  0.00000000E+00
  0.00000000E+00  0.00000000E+00  0.00000000E+00
  0.00000000E+00  0.00000000E+00  0.00000000E+00
  0.00000000E+00  0.00000000E+00  0.00000000E+00
