SYSTEM = CH4

LREAL = .FALSE.

LWAVE = .TRUE.
LCHARG = .TRUE.
LVTOT = .FALSE.

PREC = Accurate
ENCUT = 500

ISMEAR = 1
SIGMA = 0.0005

EDIFF = 1E-5
EDIFFG = 1E-4
NSW = 100

ISIF = 2
IBRION = 2
ISPIN = 1
POTIM = 0.5

IALGO = 38
NELMIN = 6
NELM = 40

NCORE = 4