CH4                                     
   1.0000000000000000     
    10.0000000000000000    0.0000000000000000    0.0000000000000000
     0.0000000000000000   10.0000000000000000    0.0000000000000000
     0.0000000000000000    0.0000000000000000   10.0000000000000000
   C    H 
     1     4
Direct
  0.5000000000000000  0.5000000000000000  0.5000000000000000
  0.4366541535484265  0.4366541535484265  0.4366541535484265
  0.5633458464515737  0.5633458464515736  0.4366541535484265
  0.4366541535484265  0.5633458464515737  0.5633458464515736
  0.5633458464515736  0.4366541535484265  0.5633458464515737
