CH4
1.0
10.0 0.0 0.0
0.0 10.0 0.0
0.0 0.0 10.0
C H
1 4
Direct
0.5 0.5 0.5
0.4 0.4 0.4
0.6 0.6 0.4
0.4 0.6 0.6
0.6 0.4 0.6
